NAME          BLANK   
ROWS
 N  OBJROW
 L  R0000000
COLUMNS
    C0000000  OBJROW     -708.         R0000000  224.        
    C0000001  OBJROW     -447.         R0000000  299.        
    C0000002  OBJROW     -394.         R0000000  116.        
    C0000003  OBJROW     -376.         R0000000  516.        
    C0000004  OBJROW     -400.         R0000000  634.        
    C0000005  OBJROW     -121.         R0000000  864.        
    C0000006  OBJROW     -447.         R0000000  584.        
    C0000007  OBJROW     -876.         R0000000  706.        
    C0000008  OBJROW     -906.         R0000000  272.        
    C0000009  OBJROW     -920.         R0000000  192.        
    C0000010  OBJROW     -410.         R0000000  566.        
    C0000011  OBJROW     -60.          R0000000  336.        
    C0000012  OBJROW     -455.         R0000000  955.        
    C0000013  OBJROW     -577.         R0000000  537.        
    C0000014  OBJROW     -216.         R0000000  377.        
    C0000015  OBJROW     -33.          R0000000  833.        
    C0000016  OBJROW     -168.         R0000000  104.        
    C0000017  OBJROW     -594.         R0000000  339.        
    C0000018  OBJROW     -849.         R0000000  768.        
RHS
    RHS       R0000000  15344.      
BOUNDS
 BV BOUND     C0000000  1.          
 BV BOUND     C0000001  1.          
 BV BOUND     C0000002  1.          
 BV BOUND     C0000003  1.          
 BV BOUND     C0000004  1.          
 BV BOUND     C0000005  1.          
 BV BOUND     C0000006  1.          
 BV BOUND     C0000007  1.          
 BV BOUND     C0000008  1.          
 BV BOUND     C0000009  1.          
 BV BOUND     C0000010  1.          
 BV BOUND     C0000011  1.          
 BV BOUND     C0000012  1.          
 BV BOUND     C0000013  1.          
 BV BOUND     C0000014  1.          
 BV BOUND     C0000015  1.          
 BV BOUND     C0000016  1.          
 BV BOUND     C0000017  1.          
 BV BOUND     C0000018  1.          
ENDATA
